wmc_benchmarks/WMCBenchSingleMea/graphstate_nativegates_ibm_qiskit_opt0_9.qasm.cnf
p cnf 261 962
c p weight 20 -1 0
c p weight -20 1 0
c p weight 22 6.12323399573676603586882014729198302312846062338790031898128063403419218957424163818359375E-17 0
c p weight -22 1 0
c p weight 23 1 0
c p weight -23 1 0
c p weight 24 -1 0
c p weight -24 1 0
c p weight 26 -1 0
c p weight -26 1 0
c p weight 28 -1 0
c p weight -28 1 0
c p weight 30 6.12323399573676603586882014729198302312846062338790031898128063403419218957424163818359375E-17 0
c p weight -30 1 0
c p weight 31 1 0
c p weight -31 1 0
c p weight 32 -1 0
c p weight -32 1 0
c p weight 34 -1 0
c p weight -34 1 0
c p weight 36 -1 0
c p weight -36 1 0
c p weight 38 6.12323399573676603586882014729198302312846062338790031898128063403419218957424163818359375E-17 0
c p weight -38 1 0
c p weight 39 1 0
c p weight -39 1 0
c p weight 40 -1 0
c p weight -40 1 0
c p weight 42 -1 0
c p weight -42 1 0
c p weight 45 -1 0
c p weight -45 1 0
c p weight 47 -1 0
c p weight -47 1 0
c p weight 49 6.12323399573676603586882014729198302312846062338790031898128063403419218957424163818359375E-17 0
c p weight -49 1 0
c p weight 50 1 0
c p weight -50 1 0
c p weight 51 -1 0
c p weight -51 1 0
c p weight 53 -1 0
c p weight -53 1 0
c p weight 55 -1 0
c p weight -55 1 0
c p weight 57 6.12323399573676603586882014729198302312846062338790031898128063403419218957424163818359375E-17 0
c p weight -57 1 0
c p weight 58 1 0
c p weight -58 1 0
c p weight 59 -1 0
c p weight -59 1 0
c p weight 61 -1 0
c p weight -61 1 0
c p weight 63 -1 0
c p weight -63 1 0
c p weight 65 6.12323399573676603586882014729198302312846062338790031898128063403419218957424163818359375E-17 0
c p weight -65 1 0
c p weight 66 1 0
c p weight -66 1 0
c p weight 67 -1 0
c p weight -67 1 0
c p weight 69 -1 0
c p weight -69 1 0
c p weight 71 -1 0
c p weight -71 1 0
c p weight 73 6.12323399573676603586882014729198302312846062338790031898128063403419218957424163818359375E-17 0
c p weight -73 1 0
c p weight 74 1 0
c p weight -74 1 0
c p weight 75 -1 0
c p weight -75 1 0
c p weight 77 -1 0
c p weight -77 1 0
c p weight 80 -1 0
c p weight -80 1 0
c p weight 82 -1 0
c p weight -82 1 0
c p weight 84 6.12323399573676603586882014729198302312846062338790031898128063403419218957424163818359375E-17 0
c p weight -84 1 0
c p weight 85 1 0
c p weight -85 1 0
c p weight 86 -1 0
c p weight -86 1 0
c p weight 88 -1 0
c p weight -88 1 0
c p weight 90 -1 0
c p weight -90 1 0
c p weight 92 6.12323399573676603586882014729198302312846062338790031898128063403419218957424163818359375E-17 0
c p weight -92 1 0
c p weight 93 1 0
c p weight -93 1 0
c p weight 94 -1 0
c p weight -94 1 0
c p weight 96 -1 0
c p weight -96 1 0
c p weight 98 -1 0
c p weight -98 1 0
c p weight 100 6.12323399573676603586882014729198302312846062338790031898128063403419218957424163818359375E-17 0
c p weight -100 1 0
c p weight 101 1 0
c p weight -101 1 0
c p weight 102 -1 0
c p weight -102 1 0
c p weight 104 -1 0
c p weight -104 1 0
c p weight 107 -1 0
c p weight -107 1 0
c p weight 109 -1 0
c p weight -109 1 0
c p weight 111 6.12323399573676603586882014729198302312846062338790031898128063403419218957424163818359375E-17 0
c p weight -111 1 0
c p weight 112 1 0
c p weight -112 1 0
c p weight 113 -1 0
c p weight -113 1 0
c p weight 115 -1 0
c p weight -115 1 0
c p weight 117 -1 0
c p weight -117 1 0
c p weight 119 6.12323399573676603586882014729198302312846062338790031898128063403419218957424163818359375E-17 0
c p weight -119 1 0
c p weight 120 1 0
c p weight -120 1 0
c p weight 121 -1 0
c p weight -121 1 0
c p weight 123 -1 0
c p weight -123 1 0
c p weight 125 -1 0
c p weight -125 1 0
c p weight 127 6.12323399573676603586882014729198302312846062338790031898128063403419218957424163818359375E-17 0
c p weight -127 1 0
c p weight 128 1 0
c p weight -128 1 0
c p weight 129 -1 0
c p weight -129 1 0
c p weight 131 -1 0
c p weight -131 1 0
c p weight 134 -1 0
c p weight -134 1 0
c p weight 136 -1 0
c p weight -136 1 0
c p weight 138 6.12323399573676603586882014729198302312846062338790031898128063403419218957424163818359375E-17 0
c p weight -138 1 0
c p weight 139 1 0
c p weight -139 1 0
c p weight 140 -1 0
c p weight -140 1 0
c p weight 142 -1 0
c p weight -142 1 0
c p weight 144 -1 0
c p weight -144 1 0
c p weight 146 6.12323399573676603586882014729198302312846062338790031898128063403419218957424163818359375E-17 0
c p weight -146 1 0
c p weight 147 1 0
c p weight -147 1 0
c p weight 148 -1 0
c p weight -148 1 0
c p weight 150 -1 0
c p weight -150 1 0
c p weight 152 -1 0
c p weight -152 1 0
c p weight 154 6.12323399573676603586882014729198302312846062338790031898128063403419218957424163818359375E-17 0
c p weight -154 1 0
c p weight 155 1 0
c p weight -155 1 0
c p weight 156 -1 0
c p weight -156 1 0
c p weight 158 -1 0
c p weight -158 1 0
c p weight 161 -1 0
c p weight -161 1 0
c p weight 163 -1 0
c p weight -163 1 0
c p weight 165 6.12323399573676603586882014729198302312846062338790031898128063403419218957424163818359375E-17 0
c p weight -165 1 0
c p weight 166 1 0
c p weight -166 1 0
c p weight 167 -1 0
c p weight -167 1 0
c p weight 169 -1 0
c p weight -169 1 0
c p weight 171 -1 0
c p weight -171 1 0
c p weight 173 6.12323399573676603586882014729198302312846062338790031898128063403419218957424163818359375E-17 0
c p weight -173 1 0
c p weight 174 1 0
c p weight -174 1 0
c p weight 175 -1 0
c p weight -175 1 0
c p weight 177 -1 0
c p weight -177 1 0
c p weight 180 -1 0
c p weight -180 1 0
c p weight 182 -1 0
c p weight -182 1 0
c p weight 184 6.12323399573676603586882014729198302312846062338790031898128063403419218957424163818359375E-17 0
c p weight -184 1 0
c p weight 185 1 0
c p weight -185 1 0
c p weight 186 -1 0
c p weight -186 1 0
c p weight 188 -1 0
c p weight -188 1 0
c p weight 190 -1 0
c p weight -190 1 0
c p weight 192 6.12323399573676603586882014729198302312846062338790031898128063403419218957424163818359375E-17 0
c p weight -192 1 0
c p weight 193 1 0
c p weight -193 1 0
c p weight 194 -1 0
c p weight -194 1 0
c p weight 196 -1 0
c p weight -196 1 0
c p weight 198 -1 0
c p weight -198 1 0
c p weight 200 6.12323399573676603586882014729198302312846062338790031898128063403419218957424163818359375E-17 0
c p weight -200 1 0
c p weight 201 1 0
c p weight -201 1 0
c p weight 202 -1 0
c p weight -202 1 0
c p weight 204 -1 0
c p weight -204 1 0
c p weight 207 -1 0
c p weight -207 1 0
c p weight 209 -1 0
c p weight -209 1 0
c p weight 211 6.12323399573676603586882014729198302312846062338790031898128063403419218957424163818359375E-17 0
c p weight -211 1 0
c p weight 212 1 0
c p weight -212 1 0
c p weight 213 -1 0
c p weight -213 1 0
c p weight 215 -1 0
c p weight -215 1 0
c p weight 217 -1 0
c p weight -217 1 0
c p weight 219 6.12323399573676603586882014729198302312846062338790031898128063403419218957424163818359375E-17 0
c p weight -219 1 0
c p weight 220 1 0
c p weight -220 1 0
c p weight 221 -1 0
c p weight -221 1 0
c p weight 223 -1 0
c p weight -223 1 0
c p weight 225 -1 0
c p weight -225 1 0
c p weight 227 6.12323399573676603586882014729198302312846062338790031898128063403419218957424163818359375E-17 0
c p weight -227 1 0
c p weight 228 1 0
c p weight -228 1 0
c p weight 229 -1 0
c p weight -229 1 0
c p weight 231 -1 0
c p weight -231 1 0
c p weight 234 -1 0
c p weight -234 1 0
c p weight 236 -1 0
c p weight -236 1 0
c p weight 238 6.12323399573676603586882014729198302312846062338790031898128063403419218957424163818359375E-17 0
c p weight -238 1 0
c p weight 239 1 0
c p weight -239 1 0
c p weight 240 -1 0
c p weight -240 1 0
c p weight 242 -1 0
c p weight -242 1 0
c p weight 244 -1 0
c p weight -244 1 0
c p weight 246 6.12323399573676603586882014729198302312846062338790031898128063403419218957424163818359375E-17 0
c p weight -246 1 0
c p weight 247 1 0
c p weight -247 1 0
c p weight 248 -1 0
c p weight -248 1 0
c p weight 250 -1 0
c p weight -250 1 0
c p weight 253 -1 0
c p weight -253 1 0
c p weight 255 -1 0
c p weight -255 1 0
c p weight 257 6.12323399573676603586882014729198302312846062338790031898128063403419218957424163818359375E-17 0
c p weight -257 1 0
c p weight 258 1 0
c p weight -258 1 0
c p weight 259 -1 0
c p weight -259 1 0
c p weight 261 -1 0
c p weight -261 1 0
-17 0
-15 0
-13 0
-11 0
-9 0
-7 0
-5 0
-3 0
-1 0
19 1 -2 0
19 -1 2 0
-19 1 2 0
-19 -1 -2 0
-20 1 0
-20 2 0
20 -1 -2 0
21 -1 19 0
-21 1 19 0
-22 19 0
21 -22 -1 0
-21 -22 1 0
21 22 1 -19 0
-21 22 -1 -19 0
-23 19 0
21 -23 1 0
-21 -23 -1 0
21 23 -1 -19 0
-21 23 1 -19 0
-24 21 0
-24 19 0
-24 -1 0
24 -21 1 -19 0
25 21 -19 0
25 -21 19 0
-25 21 19 0
-25 -21 -19 0
-26 21 0
-26 19 0
26 -21 -19 0
27 3 -4 0
27 -3 4 0
-27 3 4 0
-27 -3 -4 0
-28 3 0
-28 4 0
28 -3 -4 0
29 -3 27 0
-29 3 27 0
-30 27 0
29 -30 -3 0
-29 -30 3 0
29 30 3 -27 0
-29 30 -3 -27 0
-31 27 0
29 -31 3 0
-29 -31 -3 0
29 31 -3 -27 0
-29 31 3 -27 0
-32 29 0
-32 27 0
-32 -3 0
32 -29 3 -27 0
33 29 -27 0
33 -29 27 0
-33 29 27 0
-33 -29 -27 0
-34 29 0
-34 27 0
34 -29 -27 0
35 29 -33 0
35 -29 33 0
-35 29 33 0
-35 -29 -33 0
-36 29 0
-36 33 0
36 -29 -33 0
37 -29 35 0
-37 29 35 0
-38 35 0
37 -38 -29 0
-37 -38 29 0
37 38 29 -35 0
-37 38 -29 -35 0
-39 35 0
37 -39 29 0
-37 -39 -29 0
37 39 -29 -35 0
-37 39 29 -35 0
-40 37 0
-40 35 0
-40 -29 0
40 -37 29 -35 0
41 37 -35 0
41 -37 35 0
-41 37 35 0
-41 -37 -35 0
-42 37 0
-42 35 0
42 -37 -35 0
43 21 -37 0
43 -21 37 0
-43 21 37 0
-43 -21 -37 0
44 25 -41 0
44 -25 41 0
-44 25 41 0
-44 -25 -41 0
-45 21 0
-45 41 0
-45 37 -25 0
-45 -37 25 0
45 -21 37 25 -41 0
45 -21 -37 -25 -41 0
46 43 -41 0
46 -43 41 0
-46 43 41 0
-46 -43 -41 0
-47 43 0
-47 41 0
47 -43 -41 0
48 -43 46 0
-48 43 46 0
-49 46 0
48 -49 -43 0
-48 -49 43 0
48 49 43 -46 0
-48 49 -43 -46 0
-50 46 0
48 -50 43 0
-48 -50 -43 0
48 50 -43 -46 0
-48 50 43 -46 0
-51 48 0
-51 46 0
-51 -43 0
51 -48 43 -46 0
52 48 -46 0
52 -48 46 0
-52 48 46 0
-52 -48 -46 0
-53 48 0
-53 46 0
53 -48 -46 0
54 5 -6 0
54 -5 6 0
-54 5 6 0
-54 -5 -6 0
-55 5 0
-55 6 0
55 -5 -6 0
56 -5 54 0
-56 5 54 0
-57 54 0
56 -57 -5 0
-56 -57 5 0
56 57 5 -54 0
-56 57 -5 -54 0
-58 54 0
56 -58 5 0
-56 -58 -5 0
56 58 -5 -54 0
-56 58 5 -54 0
-59 56 0
-59 54 0
-59 -5 0
59 -56 5 -54 0
60 56 -54 0
60 -56 54 0
-60 56 54 0
-60 -56 -54 0
-61 56 0
-61 54 0
61 -56 -54 0
62 7 -8 0
62 -7 8 0
-62 7 8 0
-62 -7 -8 0
-63 7 0
-63 8 0
63 -7 -8 0
64 -7 62 0
-64 7 62 0
-65 62 0
64 -65 -7 0
-64 -65 7 0
64 65 7 -62 0
-64 65 -7 -62 0
-66 62 0
64 -66 7 0
-64 -66 -7 0
64 66 -7 -62 0
-64 66 7 -62 0
-67 64 0
-67 62 0
-67 -7 0
67 -64 7 -62 0
68 64 -62 0
68 -64 62 0
-68 64 62 0
-68 -64 -62 0
-69 64 0
-69 62 0
69 -64 -62 0
70 64 -68 0
70 -64 68 0
-70 64 68 0
-70 -64 -68 0
-71 64 0
-71 68 0
71 -64 -68 0
72 -64 70 0
-72 64 70 0
-73 70 0
72 -73 -64 0
-72 -73 64 0
72 73 64 -70 0
-72 73 -64 -70 0
-74 70 0
72 -74 64 0
-72 -74 -64 0
72 74 -64 -70 0
-72 74 64 -70 0
-75 72 0
-75 70 0
-75 -64 0
75 -72 64 -70 0
76 72 -70 0
76 -72 70 0
-76 72 70 0
-76 -72 -70 0
-77 72 0
-77 70 0
77 -72 -70 0
78 56 -72 0
78 -56 72 0
-78 56 72 0
-78 -56 -72 0
79 60 -76 0
79 -60 76 0
-79 60 76 0
-79 -60 -76 0
-80 56 0
-80 76 0
-80 72 -60 0
-80 -72 60 0
80 -56 72 60 -76 0
80 -56 -72 -60 -76 0
81 78 -76 0
81 -78 76 0
-81 78 76 0
-81 -78 -76 0
-82 78 0
-82 76 0
82 -78 -76 0
83 -78 81 0
-83 78 81 0
-84 81 0
83 -84 -78 0
-83 -84 78 0
83 84 78 -81 0
-83 84 -78 -81 0
-85 81 0
83 -85 78 0
-83 -85 -78 0
83 85 -78 -81 0
-83 85 78 -81 0
-86 83 0
-86 81 0
-86 -78 0
86 -83 78 -81 0
87 83 -81 0
87 -83 81 0
-87 83 81 0
-87 -83 -81 0
-88 83 0
-88 81 0
88 -83 -81 0
89 9 -10 0
89 -9 10 0
-89 9 10 0
-89 -9 -10 0
-90 9 0
-90 10 0
90 -9 -10 0
91 -9 89 0
-91 9 89 0
-92 89 0
91 -92 -9 0
-91 -92 9 0
91 92 9 -89 0
-91 92 -9 -89 0
-93 89 0
91 -93 9 0
-91 -93 -9 0
91 93 -9 -89 0
-91 93 9 -89 0
-94 91 0
-94 89 0
-94 -9 0
94 -91 9 -89 0
95 91 -89 0
95 -91 89 0
-95 91 89 0
-95 -91 -89 0
-96 91 0
-96 89 0
96 -91 -89 0
97 91 -95 0
97 -91 95 0
-97 91 95 0
-97 -91 -95 0
-98 91 0
-98 95 0
98 -91 -95 0
99 -91 97 0
-99 91 97 0
-100 97 0
99 -100 -91 0
-99 -100 91 0
99 100 91 -97 0
-99 100 -91 -97 0
-101 97 0
99 -101 91 0
-99 -101 -91 0
99 101 -91 -97 0
-99 101 91 -97 0
-102 99 0
-102 97 0
-102 -91 0
102 -99 91 -97 0
103 99 -97 0
103 -99 97 0
-103 99 97 0
-103 -99 -97 0
-104 99 0
-104 97 0
104 -99 -97 0
105 21 -99 0
105 -21 99 0
-105 21 99 0
-105 -21 -99 0
106 44 -103 0
106 -44 103 0
-106 44 103 0
-106 -44 -103 0
-107 21 0
-107 103 0
-107 99 -44 0
-107 -99 44 0
107 -21 99 44 -103 0
107 -21 -99 -44 -103 0
108 105 -103 0
108 -105 103 0
-108 105 103 0
-108 -105 -103 0
-109 105 0
-109 103 0
109 -105 -103 0
110 -105 108 0
-110 105 108 0
-111 108 0
110 -111 -105 0
-110 -111 105 0
110 111 105 -108 0
-110 111 -105 -108 0
-112 108 0
110 -112 105 0
-110 -112 -105 0
110 112 -105 -108 0
-110 112 105 -108 0
-113 110 0
-113 108 0
-113 -105 0
113 -110 105 -108 0
114 110 -108 0
114 -110 108 0
-114 110 108 0
-114 -110 -108 0
-115 110 0
-115 108 0
115 -110 -108 0
116 11 -12 0
116 -11 12 0
-116 11 12 0
-116 -11 -12 0
-117 11 0
-117 12 0
117 -11 -12 0
118 -11 116 0
-118 11 116 0
-119 116 0
118 -119 -11 0
-118 -119 11 0
118 119 11 -116 0
-118 119 -11 -116 0
-120 116 0
118 -120 11 0
-118 -120 -11 0
118 120 -11 -116 0
-118 120 11 -116 0
-121 118 0
-121 116 0
-121 -11 0
121 -118 11 -116 0
122 118 -116 0
122 -118 116 0
-122 118 116 0
-122 -118 -116 0
-123 118 0
-123 116 0
123 -118 -116 0
124 118 -122 0
124 -118 122 0
-124 118 122 0
-124 -118 -122 0
-125 118 0
-125 122 0
125 -118 -122 0
126 -118 124 0
-126 118 124 0
-127 124 0
126 -127 -118 0
-126 -127 118 0
126 127 118 -124 0
-126 127 -118 -124 0
-128 124 0
126 -128 118 0
-126 -128 -118 0
126 128 -118 -124 0
-126 128 118 -124 0
-129 126 0
-129 124 0
-129 -118 0
129 -126 118 -124 0
130 126 -124 0
130 -126 124 0
-130 126 124 0
-130 -126 -124 0
-131 126 0
-131 124 0
131 -126 -124 0
132 110 -126 0
132 -110 126 0
-132 110 126 0
-132 -110 -126 0
133 114 -130 0
133 -114 130 0
-133 114 130 0
-133 -114 -130 0
-134 110 0
-134 130 0
-134 126 -114 0
-134 -126 114 0
134 -110 126 114 -130 0
134 -110 -126 -114 -130 0
135 132 -130 0
135 -132 130 0
-135 132 130 0
-135 -132 -130 0
-136 132 0
-136 130 0
136 -132 -130 0
137 -132 135 0
-137 132 135 0
-138 135 0
137 -138 -132 0
-137 -138 132 0
137 138 132 -135 0
-137 138 -132 -135 0
-139 135 0
137 -139 132 0
-137 -139 -132 0
137 139 -132 -135 0
-137 139 132 -135 0
-140 137 0
-140 135 0
-140 -132 0
140 -137 132 -135 0
141 137 -135 0
141 -137 135 0
-141 137 135 0
-141 -137 -135 0
-142 137 0
-142 135 0
142 -137 -135 0
143 13 -14 0
143 -13 14 0
-143 13 14 0
-143 -13 -14 0
-144 13 0
-144 14 0
144 -13 -14 0
145 -13 143 0
-145 13 143 0
-146 143 0
145 -146 -13 0
-145 -146 13 0
145 146 13 -143 0
-145 146 -13 -143 0
-147 143 0
145 -147 13 0
-145 -147 -13 0
145 147 -13 -143 0
-145 147 13 -143 0
-148 145 0
-148 143 0
-148 -13 0
148 -145 13 -143 0
149 145 -143 0
149 -145 143 0
-149 145 143 0
-149 -145 -143 0
-150 145 0
-150 143 0
150 -145 -143 0
151 145 -149 0
151 -145 149 0
-151 145 149 0
-151 -145 -149 0
-152 145 0
-152 149 0
152 -145 -149 0
153 -145 151 0
-153 145 151 0
-154 151 0
153 -154 -145 0
-153 -154 145 0
153 154 145 -151 0
-153 154 -145 -151 0
-155 151 0
153 -155 145 0
-153 -155 -145 0
153 155 -145 -151 0
-153 155 145 -151 0
-156 153 0
-156 151 0
-156 -145 0
156 -153 145 -151 0
157 153 -151 0
157 -153 151 0
-157 153 151 0
-157 -153 -151 0
-158 153 0
-158 151 0
158 -153 -151 0
159 83 -153 0
159 -83 153 0
-159 83 153 0
-159 -83 -153 0
160 87 -157 0
160 -87 157 0
-160 87 157 0
-160 -87 -157 0
-161 83 0
-161 157 0
-161 153 -87 0
-161 -153 87 0
161 -83 153 87 -157 0
161 -83 -153 -87 -157 0
162 159 -157 0
162 -159 157 0
-162 159 157 0
-162 -159 -157 0
-163 159 0
-163 157 0
163 -159 -157 0
164 -159 162 0
-164 159 162 0
-165 162 0
164 -165 -159 0
-164 -165 159 0
164 165 159 -162 0
-164 165 -159 -162 0
-166 162 0
164 -166 159 0
-164 -166 -159 0
164 166 -159 -162 0
-164 166 159 -162 0
-167 164 0
-167 162 0
-167 -159 0
167 -164 159 -162 0
168 164 -162 0
168 -164 162 0
-168 164 162 0
-168 -164 -162 0
-169 164 0
-169 162 0
169 -164 -162 0
170 164 -168 0
170 -164 168 0
-170 164 168 0
-170 -164 -168 0
-171 164 0
-171 168 0
171 -164 -168 0
172 -164 170 0
-172 164 170 0
-173 170 0
172 -173 -164 0
-172 -173 164 0
172 173 164 -170 0
-172 173 -164 -170 0
-174 170 0
172 -174 164 0
-172 -174 -164 0
172 174 -164 -170 0
-172 174 164 -170 0
-175 172 0
-175 170 0
-175 -164 0
175 -172 164 -170 0
176 172 -170 0
176 -172 170 0
-176 172 170 0
-176 -172 -170 0
-177 172 0
-177 170 0
177 -172 -170 0
178 137 -172 0
178 -137 172 0
-178 137 172 0
-178 -137 -172 0
179 141 -176 0
179 -141 176 0
-179 141 176 0
-179 -141 -176 0
-180 137 0
-180 176 0
-180 172 -141 0
-180 -172 141 0
180 -137 172 141 -176 0
180 -137 -172 -141 -176 0
181 178 -176 0
181 -178 176 0
-181 178 176 0
-181 -178 -176 0
-182 178 0
-182 176 0
182 -178 -176 0
183 -178 181 0
-183 178 181 0
-184 181 0
183 -184 -178 0
-183 -184 178 0
183 184 178 -181 0
-183 184 -178 -181 0
-185 181 0
183 -185 178 0
-183 -185 -178 0
183 185 -178 -181 0
-183 185 178 -181 0
-186 183 0
-186 181 0
-186 -178 0
186 -183 178 -181 0
187 183 -181 0
187 -183 181 0
-187 183 181 0
-187 -183 -181 0
-188 183 0
-188 181 0
188 -183 -181 0
189 15 -16 0
189 -15 16 0
-189 15 16 0
-189 -15 -16 0
-190 15 0
-190 16 0
190 -15 -16 0
191 -15 189 0
-191 15 189 0
-192 189 0
191 -192 -15 0
-191 -192 15 0
191 192 15 -189 0
-191 192 -15 -189 0
-193 189 0
191 -193 15 0
-191 -193 -15 0
191 193 -15 -189 0
-191 193 15 -189 0
-194 191 0
-194 189 0
-194 -15 0
194 -191 15 -189 0
195 191 -189 0
195 -191 189 0
-195 191 189 0
-195 -191 -189 0
-196 191 0
-196 189 0
196 -191 -189 0
197 191 -195 0
197 -191 195 0
-197 191 195 0
-197 -191 -195 0
-198 191 0
-198 195 0
198 -191 -195 0
199 -191 197 0
-199 191 197 0
-200 197 0
199 -200 -191 0
-199 -200 191 0
199 200 191 -197 0
-199 200 -191 -197 0
-201 197 0
199 -201 191 0
-199 -201 -191 0
199 201 -191 -197 0
-199 201 191 -197 0
-202 199 0
-202 197 0
-202 -191 0
202 -199 191 -197 0
203 199 -197 0
203 -199 197 0
-203 199 197 0
-203 -199 -197 0
-204 199 0
-204 197 0
204 -199 -197 0
205 56 -199 0
205 -56 199 0
-205 56 199 0
-205 -56 -199 0
206 79 -203 0
206 -79 203 0
-206 79 203 0
-206 -79 -203 0
-207 56 0
-207 203 0
-207 199 -79 0
-207 -199 79 0
207 -56 199 79 -203 0
207 -56 -199 -79 -203 0
208 205 -203 0
208 -205 203 0
-208 205 203 0
-208 -205 -203 0
-209 205 0
-209 203 0
209 -205 -203 0
210 -205 208 0
-210 205 208 0
-211 208 0
210 -211 -205 0
-210 -211 205 0
210 211 205 -208 0
-210 211 -205 -208 0
-212 208 0
210 -212 205 0
-210 -212 -205 0
210 212 -205 -208 0
-210 212 205 -208 0
-213 210 0
-213 208 0
-213 -205 0
213 -210 205 -208 0
214 210 -208 0
214 -210 208 0
-214 210 208 0
-214 -210 -208 0
-215 210 0
-215 208 0
215 -210 -208 0
216 17 -18 0
216 -17 18 0
-216 17 18 0
-216 -17 -18 0
-217 17 0
-217 18 0
217 -17 -18 0
218 -17 216 0
-218 17 216 0
-219 216 0
218 -219 -17 0
-218 -219 17 0
218 219 17 -216 0
-218 219 -17 -216 0
-220 216 0
218 -220 17 0
-218 -220 -17 0
218 220 -17 -216 0
-218 220 17 -216 0
-221 218 0
-221 216 0
-221 -17 0
221 -218 17 -216 0
222 218 -216 0
222 -218 216 0
-222 218 216 0
-222 -218 -216 0
-223 218 0
-223 216 0
223 -218 -216 0
224 218 -222 0
224 -218 222 0
-224 218 222 0
-224 -218 -222 0
-225 218 0
-225 222 0
225 -218 -222 0
226 -218 224 0
-226 218 224 0
-227 224 0
226 -227 -218 0
-226 -227 218 0
226 227 218 -224 0
-226 227 -218 -224 0
-228 224 0
226 -228 218 0
-226 -228 -218 0
226 228 -218 -224 0
-226 228 218 -224 0
-229 226 0
-229 224 0
-229 -218 0
229 -226 218 -224 0
230 226 -224 0
230 -226 224 0
-230 226 224 0
-230 -226 -224 0
-231 226 0
-231 224 0
231 -226 -224 0
232 48 -226 0
232 -48 226 0
-232 48 226 0
-232 -48 -226 0
233 52 -230 0
233 -52 230 0
-233 52 230 0
-233 -52 -230 0
-234 48 0
-234 230 0
-234 226 -52 0
-234 -226 52 0
234 -48 226 52 -230 0
234 -48 -226 -52 -230 0
235 232 -230 0
235 -232 230 0
-235 232 230 0
-235 -232 -230 0
-236 232 0
-236 230 0
236 -232 -230 0
237 -232 235 0
-237 232 235 0
-238 235 0
237 -238 -232 0
-237 -238 232 0
237 238 232 -235 0
-237 238 -232 -235 0
-239 235 0
237 -239 232 0
-237 -239 -232 0
237 239 -232 -235 0
-237 239 232 -235 0
-240 237 0
-240 235 0
-240 -232 0
240 -237 232 -235 0
241 237 -235 0
241 -237 235 0
-241 237 235 0
-241 -237 -235 0
-242 237 0
-242 235 0
242 -237 -235 0
243 237 -241 0
243 -237 241 0
-243 237 241 0
-243 -237 -241 0
-244 237 0
-244 241 0
244 -237 -241 0
245 -237 243 0
-245 237 243 0
-246 243 0
245 -246 -237 0
-245 -246 237 0
245 246 237 -243 0
-245 246 -237 -243 0
-247 243 0
245 -247 237 0
-245 -247 -237 0
245 247 -237 -243 0
-245 247 237 -243 0
-248 245 0
-248 243 0
-248 -237 0
248 -245 237 -243 0
249 245 -243 0
249 -245 243 0
-249 245 243 0
-249 -245 -243 0
-250 245 0
-250 243 0
250 -245 -243 0
251 210 -245 0
251 -210 245 0
-251 210 245 0
-251 -210 -245 0
252 214 -249 0
252 -214 249 0
-252 214 249 0
-252 -214 -249 0
-253 210 0
-253 249 0
-253 245 -214 0
-253 -245 214 0
253 -210 245 214 -249 0
253 -210 -245 -214 -249 0
254 251 -249 0
254 -251 249 0
-254 251 249 0
-254 -251 -249 0
-255 251 0
-255 249 0
255 -251 -249 0
256 -251 254 0
-256 251 254 0
-257 254 0
256 -257 -251 0
-256 -257 251 0
256 257 251 -254 0
-256 257 -251 -254 0
-258 254 0
256 -258 251 0
-256 -258 -251 0
256 258 -251 -254 0
-256 258 251 -254 0
-259 256 0
-259 254 0
-259 -251 0
259 -256 251 -254 0
260 256 -254 0
260 -256 254 0
-260 256 254 0
-260 -256 -254 0
-261 256 0
-261 254 0
261 -256 -254 0
-21 0
-48 0
-233 0
-56 0
-206 0
-83 0
-160 0
-110 0
-133 0
-137 0
-179 0
-183 0
-187 0
-210 0
-252 0
-256 0
-260 0
