wmc_benchmarks/MQTBench/graphstate_nativegates_ibm_qiskit_opt0_9.qasm
// Used Gate Set: ['id', 'rz', 'sx', 'x', 'cx', 'measure', 'barrier']
OPENQASM 2.0;
include "qelib1.inc";
qreg q[9];
rz(pi/2) q[0];
rx(0.5*pi) q[0];
rz(pi/2) q[0];
rz(pi/2) q[1];
rx(0.5*pi) q[1];
rz(pi/2) q[1];
rz(pi/2) q[1];
rx(0.5*pi) q[1];
rz(pi/2) q[1];
cx q[0],q[1];
rz(pi/2) q[1];
rx(0.5*pi) q[1];
rz(pi/2) q[1];
rz(pi/2) q[2];
rx(0.5*pi) q[2];
rz(pi/2) q[2];
rz(pi/2) q[3];
rx(0.5*pi) q[3];
rz(pi/2) q[3];
rz(pi/2) q[3];
rx(0.5*pi) q[3];
rz(pi/2) q[3];
cx q[2],q[3];
rz(pi/2) q[3];
rx(0.5*pi) q[3];
rz(pi/2) q[3];
rz(pi/2) q[4];
rx(0.5*pi) q[4];
rz(pi/2) q[4];
rz(pi/2) q[4];
rx(0.5*pi) q[4];
rz(pi/2) q[4];
cx q[0],q[4];
rz(pi/2) q[4];
rx(0.5*pi) q[4];
rz(pi/2) q[4];
rz(pi/2) q[5];
rx(0.5*pi) q[5];
rz(pi/2) q[5];
rz(pi/2) q[5];
rx(0.5*pi) q[5];
rz(pi/2) q[5];
cx q[4],q[5];
rz(pi/2) q[5];
rx(0.5*pi) q[5];
rz(pi/2) q[5];
rz(pi/2) q[6];
rx(0.5*pi) q[6];
rz(pi/2) q[6];
rz(pi/2) q[6];
rx(0.5*pi) q[6];
rz(pi/2) q[6];
cx q[3],q[6];
rz(pi/2) q[6];
rx(0.5*pi) q[6];
rz(pi/2) q[6];
rz(pi/2) q[6];
rx(0.5*pi) q[6];
rz(pi/2) q[6];
cx q[5],q[6];
rz(pi/2) q[6];
rx(0.5*pi) q[6];
rz(pi/2) q[6];
rz(pi/2) q[7];
rx(0.5*pi) q[7];
rz(pi/2) q[7];
rz(pi/2) q[7];
rx(0.5*pi) q[7];
rz(pi/2) q[7];
cx q[2],q[7];
rz(pi/2) q[7];
rx(0.5*pi) q[7];
rz(pi/2) q[7];
rz(pi/2) q[8];
rx(0.5*pi) q[8];
rz(pi/2) q[8];
rz(pi/2) q[8];
rx(0.5*pi) q[8];
rz(pi/2) q[8];
cx q[1],q[8];
rz(pi/2) q[8];
rx(0.5*pi) q[8];
rz(pi/2) q[8];
rz(pi/2) q[8];
rx(0.5*pi) q[8];
rz(pi/2) q[8];
cx q[7],q[8];
rz(pi/2) q[8];
rx(0.5*pi) q[8];
rz(pi/2) q[8];
